32	4	3
13	10	9	13	35	1	44	
0	0	0	0	0	9	10	7	8	10	1	3	2	3	4
2	1	0	0	0	1	5	6	9	10	2	3	5	10	11
3	0	4	0	0	8	8	2	4	3	8	3	7	9	11
10	0	0	0	8	2	8	10	10	10	1	3	6	8	10
5	0	0	0	1	10	7	1	9	6	2	3	6	7	16
8	0	0	0	6	8	4	2	4	2	1	1	29
2	5	0	0	0	4	2	6	9	1	6	2	13	14
3	3	0	0	0	1	9	3	2	2	6	3	12	15	19
7	0	0	0	8	9	4	4	8	3	3	3	15	20	25
3	0	0	8	0	9	3	10	10	1	6	3	13	24	30
4	8	0	0	0	2	8	10	3	2	1	1	20
10	0	0	0	5	4	6	3	9	5	3	3	13	22	25
9	7	0	0	0	5	5	1	8	6	3	2	17	31
3	10	0	0	0	3	5	6	6	2	9	2	17	18
7	0	0	9	0	9	1	1	9	10	2	1	30
2	0	0	3	0	4	2	10	3	4	1	2	20	22
1	0	0	0	4	3	7	6	6	6	10	1	23
7	0	0	0	6	8	1	5	9	8	10	1	27
8	7	0	0	0	2	1	4	8	7	6	1	22
9	2	0	0	0	6	5	6	7	3	6	2	21	23
2	0	5	0	0	8	7	7	8	9	1	1	26
2	0	0	9	0	8	2	7	4	7	3	3	23	26	28
2	0	0	0	5	4	5	3	8	4	1	1	29
9	0	6	0	0	8	5	1	1	2	7	2	29	31
6	0	8	0	0	7	8	2	2	5	5	2	27	28
9	0	0	9	0	8	2	1	4	10	9	1	27
7	0	0	1	0	4	7	1	1	1	7	1	30
9	0	0	0	7	4	5	2	7	2	5	1	31
1	0	7	0	0	8	9	10	8	10	2	1	32
3	0	3	0	0	5	6	9	6	8	3	1	32
3	6	0	0	0	10	5	5	1	9	4	1	32
0	0	0	0	0	9	3	1	9	4	2	0
